data;
param Title := JasminumNudiflorum;
param start := 66_0_F;
set V :=
66_0_F
79_0_F
50_0_R
49_0_F
85_0_F
84_0_F
95_0_F
49_1_R
47_0_R
;
set O :=
66_0_F	79_0_F
79_0_F	50_0_R
50_0_R	49_0_F
49_0_F	85_0_F
85_0_F	84_0_F
84_0_F	95_0_F
95_0_F	49_1_R
49_1_R	47_0_R
47_0_R	66_0_F
;
set L :=
84_0_F	95_0_F
84_0_F	47_0_R
66_0_F	79_0_F
85_0_F	84_0_F
50_0_R	85_0_F
50_0_R	84_0_F
79_0_F	50_0_R
95_0_F	47_0_R
;
param l :=
66_0_F	79_0_F	-120.0
79_0_F	50_0_R	-120.0
50_0_R	49_0_F	-120.0
49_0_F	85_0_F	-120.0
85_0_F	84_0_F	-120.0
84_0_F	95_0_F	-120.0
95_0_F	49_1_R	-120.0
49_1_R	47_0_R	-120.0
47_0_R	66_0_F	-65182
;
param w :=
66_0_F	20730.0
79_0_F	10713.0
50_0_R	8071.0
49_0_F	127.0
85_0_F	4667.0
84_0_F	16402.0
95_0_F	3863.0
49_1_R	127.0
47_0_R	1562.0
;
param b_inf :=
84_0_F	95_0_F	0.0
84_0_F	47_0_R	3485.0
66_0_F	79_0_F	0.0
85_0_F	84_0_F	0.0
50_0_R	85_0_F	0.0
50_0_R	84_0_F	4315.0
79_0_F	50_0_R	0.0
95_0_F	47_0_R	0.0
;
param b_sup :=
84_0_F	95_0_F	35.0
84_0_F	47_0_R	3775.0
66_0_F	79_0_F	79.0
85_0_F	84_0_F	27.0
50_0_R	85_0_F	61.0
50_0_R	84_0_F	4417.0
79_0_F	50_0_R	20.0
95_0_F	47_0_R	33.0
;
